(set-logic QF_SLIA)
(declare-fun var0 () String)
(assert (not (str.in_re var0 (re.++ ((_ re.loop 6 669) (re.++ (re.union (str.to_re "5`") (re.union (str.to_re "0") (re.union (str.to_re "@Bz") (str.to_re "+xy")))) (re.++ (re.union (str.to_re "4}") (re.union (str.to_re "<") (re.union (str.to_re "n#") (str.to_re ":")))) (re.++ (re.union (str.to_re "Na") (re.union (str.to_re ";") (re.union (str.to_re "{") (str.to_re "|}0")))) (re.union (str.to_re "}E") (re.union (str.to_re "Qu") (re.union (str.to_re "S8") (str.to_re "+l@")))))))) (re.++ ((_ re.loop 6 184) (re.++ (re.union (str.to_re "5/S") (re.union (str.to_re "&") (re.union (str.to_re "pZ") (str.to_re "?}@")))) (re.++ (re.union (str.to_re "1") (re.union (str.to_re "S-O") (re.union (str.to_re "\\") (str.to_re "P")))) (re.++ (re.union (str.to_re "(") (re.union (str.to_re "x{n") (re.union (str.to_re "n") (str.to_re "&")))) (re.union (str.to_re "z") (re.union (str.to_re "Rl") (re.union (str.to_re "E?") (str.to_re "I")))))))) (re.++ ((_ re.loop 12 228) (re.++ (re.union (str.to_re "~a>") (re.union (str.to_re "%7") (re.union (str.to_re "#") (str.to_re ":C")))) (re.++ (re.union (str.to_re "Vg") (re.union (str.to_re "yWm") (re.union (str.to_re "q") (str.to_re "Y0")))) (re.++ (re.union (str.to_re "b=") (re.union (str.to_re "G") (re.union (str.to_re "t") (str.to_re "6a")))) (re.union (str.to_re "\\~") (re.union (str.to_re "Ix") (re.union (str.to_re "1D^") (str.to_re "d")))))))) ((_ re.loop 14 493) (re.++ (re.union (str.to_re "M") (re.union (str.to_re "I=_") (re.union (str.to_re ")?M") (str.to_re "e")))) (re.++ (re.union (str.to_re "wk2") (re.union (str.to_re "4\\") (re.union (str.to_re "mb") (str.to_re "o")))) (re.++ (re.union (str.to_re "Du") (re.union (str.to_re "8+") (re.union (str.to_re "TNB") (str.to_re "F")))) (re.union (str.to_re "3W") (re.union (str.to_re "|N") (re.union (str.to_re "AS") (str.to_re "j"))))))))))))))
(assert (not (str.in_re var0 (re.++ ((_ re.loop 7 486) (re.++ (re.union (str.to_re "U09") (re.union (str.to_re "f") (re.union (str.to_re "5f") (str.to_re ")(b")))) (re.++ (re.union (str.to_re "5") (re.union (str.to_re "jX") (re.union (str.to_re "E7A") (str.to_re "O")))) (re.++ (re.union (str.to_re "'C") (re.union (str.to_re "C") (re.union (str.to_re "U") (str.to_re "#8}")))) (re.union (str.to_re ",EJ") (re.union (str.to_re "g<5") (re.union (str.to_re "c<_") (str.to_re "_")))))))) (re.++ ((_ re.loop 7 153) (re.++ (re.union (str.to_re "SK") (re.union (str.to_re "K") (re.union (str.to_re "Es") (str.to_re "\\/}")))) (re.++ (re.union (str.to_re "r") (re.union (str.to_re "P") (re.union (str.to_re "O") (str.to_re "]=")))) (re.++ (re.union (str.to_re "H6r") (re.union (str.to_re "cLg") (re.union (str.to_re "ea") (str.to_re "m")))) (re.union (str.to_re "xc") (re.union (str.to_re "4") (re.union (str.to_re "J") (str.to_re "oiM")))))))) (re.++ ((_ re.loop 13 571) (re.++ (re.union (str.to_re "IKJ") (re.union (str.to_re "u\\") (re.union (str.to_re "H*") (str.to_re "*7Z")))) (re.++ (re.union (str.to_re "wL") (re.union (str.to_re "k'0") (re.union (str.to_re ")1") (str.to_re "n")))) (re.++ (re.union (str.to_re "s") (re.union (str.to_re "e|") (re.union (str.to_re "4+$") (str.to_re "%2?")))) (re.union (str.to_re "8") (re.union (str.to_re "Dh3") (re.union (str.to_re "Z0") (str.to_re "N")))))))) ((_ re.loop 16 407) (re.++ (re.union (str.to_re ",'") (re.union (str.to_re ">") (re.union (str.to_re "-0O") (str.to_re "y")))) (re.++ (re.union (str.to_re "=") (re.union (str.to_re "V_") (re.union (str.to_re "5<#") (str.to_re "\u0022;:")))) (re.++ (re.union (str.to_re "|") (re.union (str.to_re "^v") (re.union (str.to_re "{") (str.to_re "'")))) (re.union (str.to_re ".a") (re.union (str.to_re "VFX") (re.union (str.to_re "7jH") (str.to_re "t<G"))))))))))))))
(assert (not (str.in_re var0 (re.++ (re.* re.allchar) (re.++ (re.union (str.to_re "<") (re.union (str.to_re ">") (re.union (str.to_re "'") (re.union (str.to_re "\u0022") (str.to_re "&"))))) (re.* re.allchar))))))
(assert (<= 50 (str.len var0)))
(check-sat)
(get-model)
